num_bands = 60
num_wann  = 18
exclude_bands = 1-8

dis_num_iter = 200
num_iter = 100

dis_froz_max = 18.2237
dis_froz_min = -200

spinors = .true.

begin projections
Fe:sp3d2;dxy;dxz;dyz
end projections

kpath = true
kpath_task = bands
kpath_bands_colour = spin
kpath_num_points=500
begin kpoint_path
G 0.00 0.00 0.00	 H 0.50 -0.50 -0.50
H 0.50 -0.50 -0.50	 N 0.50 0.00 -0.50
N 0.50 0.00 -0.50	 G 0.00 0.00 0.00
G 0.00 0.00 0.00    P 0.75 0.25 -0.25
end kpoint_path

# Type your Fermi energy 
fermi_energy = 17.4613
#fermi_energy_min = 16.4613
#fermi_energy_max = 18.4613

bands_plot = .false.
write_hr = .false.
wannier_plot = .false.
fermi_surface_plot = .false.

kslice = true
#kslice_task = fermi_lines
kslice_task = curv+fermi_lines
kslice_corner = 0.0 0.0 0.0
kslice_b1 = 0.5 -0.5 -0.5
kslice_b2 = 0.5 0.5 0.5
kslice_2dkmesh = 200 200

berry = true
berry_task = ahc
#berry_task = kubo
#kubo_freq_max = 7.0
berry_kmesh = Nk Nk Nk

begin unit_cell_cart
ang
   1.4340702413     1.4340702413     1.4340702413
  -1.4340702413     1.4340702413     1.4340702413
  -1.4340702413    -1.4340702413     1.4340702413
end unit_cell_cart

begin atoms_frac
Fe  0.0  0.0  0.0
end atoms_frac

mp_grid:4 4 4

begin kpoints
   0.0000000000    0.0000000000    0.0000000000    0.0156250000
   0.0000000000    0.0000000000    0.2500000000    0.0156250000
   0.0000000000    0.0000000000    0.5000000000    0.0156250000
   0.0000000000    0.0000000000    0.7500000000    0.0156250000
   0.0000000000    0.2500000000    0.0000000000    0.0156250000
   0.0000000000    0.2500000000    0.2500000000    0.0156250000
   0.0000000000    0.2500000000    0.5000000000    0.0156250000
   0.0000000000    0.2500000000    0.7500000000    0.0156250000
   0.0000000000    0.5000000000    0.0000000000    0.0156250000
   0.0000000000    0.5000000000    0.2500000000    0.0156250000
   0.0000000000    0.5000000000    0.5000000000    0.0156250000
   0.0000000000    0.5000000000    0.7500000000    0.0156250000
   0.0000000000    0.7500000000    0.0000000000    0.0156250000
   0.0000000000    0.7500000000    0.2500000000    0.0156250000
   0.0000000000    0.7500000000    0.5000000000    0.0156250000
   0.0000000000    0.7500000000    0.7500000000    0.0156250000
   0.2500000000    0.0000000000    0.0000000000    0.0156250000
   0.2500000000    0.0000000000    0.2500000000    0.0156250000
   0.2500000000    0.0000000000    0.5000000000    0.0156250000
   0.2500000000    0.0000000000    0.7500000000    0.0156250000
   0.2500000000    0.2500000000    0.0000000000    0.0156250000
   0.2500000000    0.2500000000    0.2500000000    0.0156250000
   0.2500000000    0.2500000000    0.5000000000    0.0156250000
   0.2500000000    0.2500000000    0.7500000000    0.0156250000
   0.2500000000    0.5000000000    0.0000000000    0.0156250000
   0.2500000000    0.5000000000    0.2500000000    0.0156250000
   0.2500000000    0.5000000000    0.5000000000    0.0156250000
   0.2500000000    0.5000000000    0.7500000000    0.0156250000
   0.2500000000    0.7500000000    0.0000000000    0.0156250000
   0.2500000000    0.7500000000    0.2500000000    0.0156250000
   0.2500000000    0.7500000000    0.5000000000    0.0156250000
   0.2500000000    0.7500000000    0.7500000000    0.0156250000
   0.5000000000    0.0000000000    0.0000000000    0.0156250000
   0.5000000000    0.0000000000    0.2500000000    0.0156250000
   0.5000000000    0.0000000000    0.5000000000    0.0156250000
   0.5000000000    0.0000000000    0.7500000000    0.0156250000
   0.5000000000    0.2500000000    0.0000000000    0.0156250000
   0.5000000000    0.2500000000    0.2500000000    0.0156250000
   0.5000000000    0.2500000000    0.5000000000    0.0156250000
   0.5000000000    0.2500000000    0.7500000000    0.0156250000
   0.5000000000    0.5000000000    0.0000000000    0.0156250000
   0.5000000000    0.5000000000    0.2500000000    0.0156250000
   0.5000000000    0.5000000000    0.5000000000    0.0156250000
   0.5000000000    0.5000000000    0.7500000000    0.0156250000
   0.5000000000    0.7500000000    0.0000000000    0.0156250000
   0.5000000000    0.7500000000    0.2500000000    0.0156250000
   0.5000000000    0.7500000000    0.5000000000    0.0156250000
   0.5000000000    0.7500000000    0.7500000000    0.0156250000
   0.7500000000    0.0000000000    0.0000000000    0.0156250000
   0.7500000000    0.0000000000    0.2500000000    0.0156250000
   0.7500000000    0.0000000000    0.5000000000    0.0156250000
   0.7500000000    0.0000000000    0.7500000000    0.0156250000
   0.7500000000    0.2500000000    0.0000000000    0.0156250000
   0.7500000000    0.2500000000    0.2500000000    0.0156250000
   0.7500000000    0.2500000000    0.5000000000    0.0156250000
   0.7500000000    0.2500000000    0.7500000000    0.0156250000
   0.7500000000    0.5000000000    0.0000000000    0.0156250000
   0.7500000000    0.5000000000    0.2500000000    0.0156250000
   0.7500000000    0.5000000000    0.5000000000    0.0156250000
   0.7500000000    0.5000000000    0.7500000000    0.0156250000
   0.7500000000    0.7500000000    0.0000000000    0.0156250000
   0.7500000000    0.7500000000    0.2500000000    0.0156250000
   0.7500000000    0.7500000000    0.5000000000    0.0156250000
   0.7500000000    0.7500000000    0.7500000000    0.0156250000
end kpoints
